\ Generated by MPModelProtoExporter
\   Name             : 
\   Format           : Free
\   Constraints      : 134
\   Variables        : 143
\     Binary         : 132
\     Integer        : 11
\     Continuous     : 0
Minimize
 Obj: +702 X01 +454 X02 +842 X03 +2396 X04 +1196 X05 +864 X06 +772 X07 +714 X08 +554 X09 +2363 X010 +2679 X011 +702 X10 +324 X12 +1093 X13 +2136 X14 +764 X15 +845 X16 +764 X17 +459 X18 +294 X19 +2184 X110 +2187 X111 +454 X20 +324 X21 +1137 X23 +2180 X24 +798 X25 +664 X26 +572 X27 +284 X28 +338 X29 +2228 X210 +2463 X211 +842 X30 +1093 X31 +1137 X32 +1616 X34 +1857 X35 +1706 X36 +1614 X37 +1421 X38 +779 X39 +1521 X310 +2021 X311 +2396 X40 +2136 X41 +2180 X42 +1616 X43 +2900 X45 +2844 X46 +2752 X47 +2464 X48 +1842 X49 +95 X410 +405 X411 +1196 X50 +764 X51 +798 X52 +1857 X53 +2900 X54 +396 X56 +424 X57 +514 X58 +1058 X59 +2948 X510 +2951 X511 +864 X60 +845 X61 +664 X62 +1706 X63 +2844 X64 +396 X65 +92 X67 +386 X68 +1002 X69 +2892 X610 +3032 X611 +772 X70 +764 X71 +572 X72 +1614 X73 +2752 X74 +424 X75 +92 X76 +305 X78 +910 X79 +2800 X710 +2951 X711 +714 X80 +459 X81 +284 X82 +1421 X83 +2464 X84 +514 X85 +386 X86 +305 X87 +322 X89 +2512 X810 +2646 X811 +554 X90 +294 X91 +338 X92 +799 X93 +1842 X94 +1058 X95 +1002 X96 +910 X97 +622 X98 +1890 X910 +2125 X911 +2363 X100 +2184 X101 +2228 X102 +1521 X103 +95 X104 +2948 X105 +2892 X106 +2800 X107 +2512 X108 +1890 X109 +500 X1011 +2679 X110_1 +2187 X111_2 +2463 X112 +2021 X113 +405 X114 +2951 X115 +3032 X116 +2951 X117 +2646 X118 +2125 X119 +500 X1110 
Subject to
 in_11: +1 X10 +1 X20 +1 X30 +1 X40 +1 X50 +1 X60 +1 X70 +1 X80 +1 X90 +1 X100 +1 X110_1  = 1
 in_11_1: +1 X01 +1 X21 +1 X31 +1 X41 +1 X51 +1 X61 +1 X71 +1 X81 +1 X91 +1 X101 +1 X111_2  = 1
 in_11_2: +1 X02 +1 X12 +1 X32 +1 X42 +1 X52 +1 X62 +1 X72 +1 X82 +1 X92 +1 X102 +1 X112  = 1
 in_11_3: +1 X03 +1 X13 +1 X23 +1 X43 +1 X53 +1 X63 +1 X73 +1 X83 +1 X93 +1 X103 +1 X113  = 1
 in_11_4: +1 X04 +1 X14 +1 X24 +1 X34 +1 X54 +1 X64 +1 X74 +1 X84 +1 X94 +1 X104 +1 X114  = 1
 in_11_5: +1 X05 +1 X15 +1 X25 +1 X35 +1 X45 +1 X65 +1 X75 +1 X85 +1 X95 +1 X105 +1 X115  = 1
 in_11_6: +1 X06 +1 X16 +1 X26 +1 X36 +1 X46 +1 X56 +1 X76 +1 X86 +1 X96 +1 X106 +1 X116  = 1
 in_11_7: +1 X07 +1 X17 +1 X27 +1 X37 +1 X47 +1 X57 +1 X67 +1 X87 +1 X97 +1 X107 +1 X117  = 1
 in_11_8: +1 X08 +1 X18 +1 X28 +1 X38 +1 X48 +1 X58 +1 X68 +1 X78 +1 X98 +1 X108 +1 X118  = 1
 in_11_9: +1 X09 +1 X19 +1 X29 +1 X39 +1 X49 +1 X59 +1 X69 +1 X79 +1 X89 +1 X109 +1 X119  = 1
 in_11_10: +1 X010 +1 X110 +1 X210 +1 X310 +1 X410 +1 X510 +1 X610 +1 X710 +1 X810 +1 X910 +1 X1110  = 1
 in_11_11: +1 X011 +1 X111 +1 X211 +1 X311 +1 X411 +1 X511 +1 X611 +1 X711 +1 X811 +1 X911 +1 X1011  = 1
 out_0: +1 X01 +1 X02 +1 X03 +1 X04 +1 X05 +1 X06 +1 X07 +1 X08 +1 X09 +1 X010 +1 X011  = 1
 out_1: +1 X10 +1 X12 +1 X13 +1 X14 +1 X15 +1 X16 +1 X17 +1 X18 +1 X19 +1 X110 +1 X111  = 1
 out_2: +1 X20 +1 X21 +1 X23 +1 X24 +1 X25 +1 X26 +1 X27 +1 X28 +1 X29 +1 X210 +1 X211  = 1
 out_3: +1 X30 +1 X31 +1 X32 +1 X34 +1 X35 +1 X36 +1 X37 +1 X38 +1 X39 +1 X310 +1 X311  = 1
 out_4: +1 X40 +1 X41 +1 X42 +1 X43 +1 X45 +1 X46 +1 X47 +1 X48 +1 X49 +1 X410 +1 X411  = 1
 out_5: +1 X50 +1 X51 +1 X52 +1 X53 +1 X54 +1 X56 +1 X57 +1 X58 +1 X59 +1 X510 +1 X511  = 1
 out_6: +1 X60 +1 X61 +1 X62 +1 X63 +1 X64 +1 X65 +1 X67 +1 X68 +1 X69 +1 X610 +1 X611  = 1
 out_7: +1 X70 +1 X71 +1 X72 +1 X73 +1 X74 +1 X75 +1 X76 +1 X78 +1 X79 +1 X710 +1 X711  = 1
 out_8: +1 X80 +1 X81 +1 X82 +1 X83 +1 X84 +1 X85 +1 X86 +1 X87 +1 X89 +1 X810 +1 X811  = 1
 out_9: +1 X90 +1 X91 +1 X92 +1 X93 +1 X94 +1 X95 +1 X96 +1 X97 +1 X98 +1 X910 +1 X911  = 1
 out_10: +1 X100 +1 X101 +1 X102 +1 X103 +1 X104 +1 X105 +1 X106 +1 X107 +1 X108 +1 X109 +1 X1011  = 1
 out_11: +1 X110_1 +1 X111_2 +1 X112 +1 X113 +1 X114 +1 X115 +1 X116 +1 X117 +1 X118 +1 X119 +1 X1110  = 1
 U_12: +11 X12 +1 U[1] -1 U[2]  <= 10
 U_13: +11 X13 +1 U[1] -1 U[3]  <= 10
 U_14: +11 X14 +1 U[1] -1 U[4]  <= 10
 U_15: +11 X15 +1 U[1] -1 U[5]  <= 10
 U_16: +11 X16 +1 U[1] -1 U[6]  <= 10
 U_17: +11 X17 +1 U[1] -1 U[7]  <= 10
 U_18: +11 X18 +1 U[1] -1 U[8]  <= 10
 U_19: +11 X19 +1 U[1] -1 U[9]  <= 10
 U_110: +11 X110 +1 U[1] -1 U[10]  <= 10
 U_111: +11 X111 +1 U[1] -1 U[11]  <= 10
 U_21: +11 X21 -1 U[1] +1 U[2]  <= 10
 U_23: +11 X23 +1 U[2] -1 U[3]  <= 10
 U_24: +11 X24 +1 U[2] -1 U[4]  <= 10
 U_25: +11 X25 +1 U[2] -1 U[5]  <= 10
 U_26: +11 X26 +1 U[2] -1 U[6]  <= 10
 U_27: +11 X27 +1 U[2] -1 U[7]  <= 10
 U_28: +11 X28 +1 U[2] -1 U[8]  <= 10
 U_29: +11 X29 +1 U[2] -1 U[9]  <= 10
 U_210: +11 X210 +1 U[2] -1 U[10]  <= 10
 U_211: +11 X211 +1 U[2] -1 U[11]  <= 10
 U_31: +11 X31 -1 U[1] +1 U[3]  <= 10
 U_32: +11 X32 -1 U[2] +1 U[3]  <= 10
 U_34: +11 X34 +1 U[3] -1 U[4]  <= 10
 U_35: +11 X35 +1 U[3] -1 U[5]  <= 10
 U_36: +11 X36 +1 U[3] -1 U[6]  <= 10
 U_37: +11 X37 +1 U[3] -1 U[7]  <= 10
 U_38: +11 X38 +1 U[3] -1 U[8]  <= 10
 U_39: +11 X39 +1 U[3] -1 U[9]  <= 10
 U_310: +11 X310 +1 U[3] -1 U[10]  <= 10
 U_311: +11 X311 +1 U[3] -1 U[11]  <= 10
 U_41: +11 X41 -1 U[1] +1 U[4]  <= 10
 U_42: +11 X42 -1 U[2] +1 U[4]  <= 10
 U_43: +11 X43 -1 U[3] +1 U[4]  <= 10
 U_45: +11 X45 +1 U[4] -1 U[5]  <= 10
 U_46: +11 X46 +1 U[4] -1 U[6]  <= 10
 U_47: +11 X47 +1 U[4] -1 U[7]  <= 10
 U_48: +11 X48 +1 U[4] -1 U[8]  <= 10
 U_49: +11 X49 +1 U[4] -1 U[9]  <= 10
 U_410: +11 X410 +1 U[4] -1 U[10]  <= 10
 U_411: +11 X411 +1 U[4] -1 U[11]  <= 10
 U_51: +11 X51 -1 U[1] +1 U[5]  <= 10
 U_52: +11 X52 -1 U[2] +1 U[5]  <= 10
 U_53: +11 X53 -1 U[3] +1 U[5]  <= 10
 U_54: +11 X54 -1 U[4] +1 U[5]  <= 10
 U_56: +11 X56 +1 U[5] -1 U[6]  <= 10
 U_57: +11 X57 +1 U[5] -1 U[7]  <= 10
 U_58: +11 X58 +1 U[5] -1 U[8]  <= 10
 U_59: +11 X59 +1 U[5] -1 U[9]  <= 10
 U_510: +11 X510 +1 U[5] -1 U[10]  <= 10
 U_511: +11 X511 +1 U[5] -1 U[11]  <= 10
 U_61: +11 X61 -1 U[1] +1 U[6]  <= 10
 U_62: +11 X62 -1 U[2] +1 U[6]  <= 10
 U_63: +11 X63 -1 U[3] +1 U[6]  <= 10
 U_64: +11 X64 -1 U[4] +1 U[6]  <= 10
 U_65: +11 X65 -1 U[5] +1 U[6]  <= 10
 U_67: +11 X67 +1 U[6] -1 U[7]  <= 10
 U_68: +11 X68 +1 U[6] -1 U[8]  <= 10
 U_69: +11 X69 +1 U[6] -1 U[9]  <= 10
 U_610: +11 X610 +1 U[6] -1 U[10]  <= 10
 U_611: +11 X611 +1 U[6] -1 U[11]  <= 10
 U_71: +11 X71 -1 U[1] +1 U[7]  <= 10
 U_72: +11 X72 -1 U[2] +1 U[7]  <= 10
 U_73: +11 X73 -1 U[3] +1 U[7]  <= 10
 U_74: +11 X74 -1 U[4] +1 U[7]  <= 10
 U_75: +11 X75 -1 U[5] +1 U[7]  <= 10
 U_76: +11 X76 -1 U[6] +1 U[7]  <= 10
 U_78: +11 X78 +1 U[7] -1 U[8]  <= 10
 U_79: +11 X79 +1 U[7] -1 U[9]  <= 10
 U_710: +11 X710 +1 U[7] -1 U[10]  <= 10
 U_711: +11 X711 +1 U[7] -1 U[11]  <= 10
 U_81: +11 X81 -1 U[1] +1 U[8]  <= 10
 U_82: +11 X82 -1 U[2] +1 U[8]  <= 10
 U_83: +11 X83 -1 U[3] +1 U[8]  <= 10
 U_84: +11 X84 -1 U[4] +1 U[8]  <= 10
 U_85: +11 X85 -1 U[5] +1 U[8]  <= 10
 U_86: +11 X86 -1 U[6] +1 U[8]  <= 10
 U_87: +11 X87 -1 U[7] +1 U[8]  <= 10
 U_89: +11 X89 +1 U[8] -1 U[9]  <= 10
 U_810: +11 X810 +1 U[8] -1 U[10]  <= 10
 U_811: +11 X811 +1 U[8] -1 U[11]  <= 10
 U_91: +11 X91 -1 U[1] +1 U[9]  <= 10
 U_92: +11 X92 -1 U[2] +1 U[9]  <= 10
 U_93: +11 X93 -1 U[3] +1 U[9]  <= 10
 U_94: +11 X94 -1 U[4] +1 U[9]  <= 10
 U_95: +11 X95 -1 U[5] +1 U[9]  <= 10
 U_96: +11 X96 -1 U[6] +1 U[9]  <= 10
 U_97: +11 X97 -1 U[7] +1 U[9]  <= 10
 U_98: +11 X98 -1 U[8] +1 U[9]  <= 10
 U_910: +11 X910 +1 U[9] -1 U[10]  <= 10
 U_911: +11 X911 +1 U[9] -1 U[11]  <= 10
 U_101: +11 X101 -1 U[1] +1 U[10]  <= 10
 U_102: +11 X102 -1 U[2] +1 U[10]  <= 10
 U_103: +11 X103 -1 U[3] +1 U[10]  <= 10
 U_104: +11 X104 -1 U[4] +1 U[10]  <= 10
 U_105: +11 X105 -1 U[5] +1 U[10]  <= 10
 U_106: +11 X106 -1 U[6] +1 U[10]  <= 10
 U_107: +11 X107 -1 U[7] +1 U[10]  <= 10
 U_108: +11 X108 -1 U[8] +1 U[10]  <= 10
 U_109: +11 X109 -1 U[9] +1 U[10]  <= 10
 U_1011: +11 X1011 +1 U[10] -1 U[11]  <= 10
 U_111_12: +11 X111_2 -1 U[1] +1 U[11]  <= 10
 U_112: +11 X112 -1 U[2] +1 U[11]  <= 10
 U_113: +11 X113 -1 U[3] +1 U[11]  <= 10
 U_114: +11 X114 -1 U[4] +1 U[11]  <= 10
 U_115: +11 X115 -1 U[5] +1 U[11]  <= 10
 U_116: +11 X116 -1 U[6] +1 U[11]  <= 10
 U_117: +11 X117 -1 U[7] +1 U[11]  <= 10
 U_118: +11 X118 -1 U[8] +1 U[11]  <= 10
 U_119: +11 X119 -1 U[9] +1 U[11]  <= 10
 U_1110: +11 X1110 -1 U[10] +1 U[11]  <= 10
Bounds
 0 <= X01 <= 1
 0 <= X02 <= 1
 0 <= X03 <= 1
 0 <= X04 <= 1
 0 <= X05 <= 1
 0 <= X06 <= 1
 0 <= X07 <= 1
 0 <= X08 <= 1
 0 <= X09 <= 1
 0 <= X010 <= 1
 0 <= X011 <= 1
 0 <= X10 <= 1
 0 <= X12 <= 1
 0 <= X13 <= 1
 0 <= X14 <= 1
 0 <= X15 <= 1
 0 <= X16 <= 1
 0 <= X17 <= 1
 0 <= X18 <= 1
 0 <= X19 <= 1
 0 <= X110 <= 1
 0 <= X111 <= 1
 0 <= X20 <= 1
 0 <= X21 <= 1
 0 <= X23 <= 1
 0 <= X24 <= 1
 0 <= X25 <= 1
 0 <= X26 <= 1
 0 <= X27 <= 1
 0 <= X28 <= 1
 0 <= X29 <= 1
 0 <= X210 <= 1
 0 <= X211 <= 1
 0 <= X30 <= 1
 0 <= X31 <= 1
 0 <= X32 <= 1
 0 <= X34 <= 1
 0 <= X35 <= 1
 0 <= X36 <= 1
 0 <= X37 <= 1
 0 <= X38 <= 1
 0 <= X39 <= 1
 0 <= X310 <= 1
 0 <= X311 <= 1
 0 <= X40 <= 1
 0 <= X41 <= 1
 0 <= X42 <= 1
 0 <= X43 <= 1
 0 <= X45 <= 1
 0 <= X46 <= 1
 0 <= X47 <= 1
 0 <= X48 <= 1
 0 <= X49 <= 1
 0 <= X410 <= 1
 0 <= X411 <= 1
 0 <= X50 <= 1
 0 <= X51 <= 1
 0 <= X52 <= 1
 0 <= X53 <= 1
 0 <= X54 <= 1
 0 <= X56 <= 1
 0 <= X57 <= 1
 0 <= X58 <= 1
 0 <= X59 <= 1
 0 <= X510 <= 1
 0 <= X511 <= 1
 0 <= X60 <= 1
 0 <= X61 <= 1
 0 <= X62 <= 1
 0 <= X63 <= 1
 0 <= X64 <= 1
 0 <= X65 <= 1
 0 <= X67 <= 1
 0 <= X68 <= 1
 0 <= X69 <= 1
 0 <= X610 <= 1
 0 <= X611 <= 1
 0 <= X70 <= 1
 0 <= X71 <= 1
 0 <= X72 <= 1
 0 <= X73 <= 1
 0 <= X74 <= 1
 0 <= X75 <= 1
 0 <= X76 <= 1
 0 <= X78 <= 1
 0 <= X79 <= 1
 0 <= X710 <= 1
 0 <= X711 <= 1
 0 <= X80 <= 1
 0 <= X81 <= 1
 0 <= X82 <= 1
 0 <= X83 <= 1
 0 <= X84 <= 1
 0 <= X85 <= 1
 0 <= X86 <= 1
 0 <= X87 <= 1
 0 <= X89 <= 1
 0 <= X810 <= 1
 0 <= X811 <= 1
 0 <= X90 <= 1
 0 <= X91 <= 1
 0 <= X92 <= 1
 0 <= X93 <= 1
 0 <= X94 <= 1
 0 <= X95 <= 1
 0 <= X96 <= 1
 0 <= X97 <= 1
 0 <= X98 <= 1
 0 <= X910 <= 1
 0 <= X911 <= 1
 0 <= X100 <= 1
 0 <= X101 <= 1
 0 <= X102 <= 1
 0 <= X103 <= 1
 0 <= X104 <= 1
 0 <= X105 <= 1
 0 <= X106 <= 1
 0 <= X107 <= 1
 0 <= X108 <= 1
 0 <= X109 <= 1
 0 <= X1011 <= 1
 0 <= X110_1 <= 1
 0 <= X111_2 <= 1
 0 <= X112 <= 1
 0 <= X113 <= 1
 0 <= X114 <= 1
 0 <= X115 <= 1
 0 <= X116 <= 1
 0 <= X117 <= 1
 0 <= X118 <= 1
 0 <= X119 <= 1
 0 <= X1110 <= 1
 1 <= U[1] <= 11
 1 <= U[2] <= 11
 1 <= U[3] <= 11
 1 <= U[4] <= 11
 1 <= U[5] <= 11
 1 <= U[6] <= 11
 1 <= U[7] <= 11
 1 <= U[8] <= 11
 1 <= U[9] <= 11
 1 <= U[10] <= 11
 1 <= U[11] <= 11
Binaries
 X01
 X02
 X03
 X04
 X05
 X06
 X07
 X08
 X09
 X010
 X011
 X10
 X12
 X13
 X14
 X15
 X16
 X17
 X18
 X19
 X110
 X111
 X20
 X21
 X23
 X24
 X25
 X26
 X27
 X28
 X29
 X210
 X211
 X30
 X31
 X32
 X34
 X35
 X36
 X37
 X38
 X39
 X310
 X311
 X40
 X41
 X42
 X43
 X45
 X46
 X47
 X48
 X49
 X410
 X411
 X50
 X51
 X52
 X53
 X54
 X56
 X57
 X58
 X59
 X510
 X511
 X60
 X61
 X62
 X63
 X64
 X65
 X67
 X68
 X69
 X610
 X611
 X70
 X71
 X72
 X73
 X74
 X75
 X76
 X78
 X79
 X710
 X711
 X80
 X81
 X82
 X83
 X84
 X85
 X86
 X87
 X89
 X810
 X811
 X90
 X91
 X92
 X93
 X94
 X95
 X96
 X97
 X98
 X910
 X911
 X100
 X101
 X102
 X103
 X104
 X105
 X106
 X107
 X108
 X109
 X1011
 X110_1
 X111_2
 X112
 X113
 X114
 X115
 X116
 X117
 X118
 X119
 X1110
Generals
 U[1]
 U[2]
 U[3]
 U[4]
 U[5]
 U[6]
 U[7]
 U[8]
 U[9]
 U[10]
 U[11]
End
